000 -99 -99 -99 000 000 -99 -99 -99 -99 -99 -99 -99 -99 -99 -99 -99 -99 000 000 -99 -99 -99 -99 000 000 -99 -99 -99 -99 000
000 000 000 000 000 000 000 000 000 -99 -99 -99 -99 -99 -99 -99 -99 -99 -99 000 000 -99 000 000 -99 000 -99 -99 -99 -99 000
000 000 000 000 000 000 000 000 000 000 -99 -99 -99 -99 000 -99 -99 -99 -99 -99 -99 -99 000 000 -99 000 000 -99 -99 -99 -99
000 000 000 000 000 000 000 000 000 000 -99 -99 000 -99 000 000 -99 -99 -99 -99 -99 -99 000 000 000 000 000 -99 -99 -99 -99
000 000 000 000 000 000 000 000 000 000 -99 -99 000 000 -99 000 000 -99 -99 -99 000 000 000 000 000 -99 -99 -99 -99 -99 -99
000 000 000 000 000 000 -99 -99 -99 000 -99 -99 000 -99 -99 000 -99 -99 -99 -99 000 000 000 000 000 000 -99 -99 -99 -99 -99
000 000 000 000 000 -99 -99 000 000 -99 -99 -99 -99 000 -99 -99 000 -99 -99 -99 000 000 000 000 000 000 -99 -99 -99 -99 -99
000 000 000 000 000 -99 -99 -99 000 -99 000 -99 -99 000 -99 -99 000 000 -99 -99 000 000 000 000 000 001 000 -99 -99 000 -99
000 000 000 000 000 -99 -99 -99 000 -99 000 000 -99 -99 -99 -99 000 000 000 -99 000 -99 000 000 000 001 000 -99 -99 000 000
000 000 000 000 000 000 -99 -99 -99 -99 000 000 -99 -99 -99 -99 -99 000 000 -99 000 000 -99 -99 000 001 000 000 -99 000 000
000 -99 -99 000 000 -99 -99 000 -99 -99 000 000 000 -99 -99 -99 -99 000 000 000 000 000 -99 -99 000 000 000 000 -99 000 000
000 000 000 000 000 000 -99 000 -99 000 000 000 -99 -99 -99 -99 -99 000 000 000 000 000 -99 -99 000 000 000 000 -99 000 000
000 -99 000 000 000 000 000 000 -99 -99 000 000 000 -99 -99 -99 -99 000 000 000 -99 000 -99 -99 -99 000 000 000 000 000 000
000 000 000 000 000 000 000 000 -99 -99 000 000 000 -99 -99 -99 000 000 000 000 -99 -99 -99 -99 000 000 000 000 000 -99 -99
000 000 000 000 000 000 000 000 -99 -99 -99 000 000 -99 -99 000 000 -99 -99 -99 -99 000 -99 -99 000 000 000 000 000 000 000
000 -99 -99 000 000 000 000 000 000 -99 -99 -99 -99 -99 -99 -99 -99 -99 -99 -99 -99 000 -99 -99 000 000 000 000 000 000 000
000 -99 -99 -99 000 000 000 000 000 -99 -99 -99 -99 -99 -99 -99 000 000 000 -99 -99 -99 000 -99 000 000 000 000 000 000 000
002 000 000 -99 -99 -99 000 000 000 000 000 -99 -99 -99 -99 -99 000 000 000 -99 -99 000 000 -99 000 -99 -99 -99 -99 000 000
001 000 000 000 -99 -99 -99 000 000 000 000 000 -99 -99 -99 -99 000 000 000 -99 -99 000 000 -99 -99 -99 -99 -99 -99 000 -99
000 000 000 000 000 -99 000 000 000 -99 000 000 -99 -99 -99 -99 -99 000 000 -99 000 000 000 -99 -99 -99 -99 -99 -99 -99 -99
000 000 000 000 000 -99 -99 000 000 000 -99 000 -99 -99 000 -99 000 000 000 000 000 000 000 -99 -99 -99 000 -99 -99 -99 -99
000 000 000 000 000 000 000 000 000 000 -99 000 -99 -99 000 000 000 000 000 000 000 000 000 -99 -99 -99 000 -99 -99 -99 -99
000 000 000 000 000 000 000 000 000 000 000 000 000 000 000 000 000 000 000 000 000 000 000 -99 -99 -99 -99 -99 -99 -99 -99
000 000 000 000 000 000 000 000 000 000 000 000 000 000 000 000 000 000 000 000 000 000 000 -99 -99 -99 -99 -99 -99 -99 -99
000 000 000 000 000 000 000 000 000 000 000 000 000 000 000 000 000 000 000 000 000 000 000 -99 -99 -99 -99 -99 -99 -99 -99
000 000 000 000 000 000 000 -99 000 000 000 000 000 000 000 000 000 000 000 000 000 -99 -99 -99 -99 -99 -99 -99 -99 -99 000
000 000 000 000 000 000 000 000 000 000 000 000 000 000 000 000 000 000 000 000 000 000 -99 -99 -99 -99 -99 -99 -99 -99 000
000 000 000 000 000 000 000 000 000 000 -99 -99 -99 -99 000 000 000 000 -99 -99 -99 000 -99 -99 -99 -99 -99 -99 -99 -99 000
000 000 000 000 000 000 000 000 000 000 -99 -99 -99 000 000 000 000 000 000 -99 000 000 -99 -99 -99 -99 -99 -99 -99 -99 -99
000 000 000 000 000 000 000 000 000 000 000 -99 -99 000 000 000 000 000 000 000 000 000 -99 -99 -99 -99 -99 -99 -99 -99 -99
000 000 000 000 000 000 000 000 000 000 000 -99 -99 000 000 000 000 000 000 000 -99 000 -99 -99 -99 -99 -99 -99 -99 -99 -99
000 000 000 000 000 000 000 000 000 000 000 000 001 000 000 000 000 000 000 -99 -99 -99 -99 000 000 -99 -99 -99 -99 -99 -99
000 000 000 000 000 000 000 000 000 000 000 001 001 000 000 000 000 000 000 -99 -99 -99 -99 000 000 000 -99 000 000 -99 000
000 000 000 000 000 000 000 000 000 000 002 005 003 000 000 000 000 000 -99 -99 000 000 -99 000 000 000 -99 000 000 000 000
000 000 000 000 000 000 000 000 000 001 006 040 042 001 000 000 000 000 -99 000 000 -99 -99 000 000 000 000 000 000 000 000
000 000 000 000 000 000 000 000 001 001 015 073 029 002 000 000 000 000 -99 000 000 -99 -99 000 000 000 000 000 000 000 000
001 000 000 000 000 -99 000 000 000 000 006 012 015 000 000 000 000 -99 000 000 000 -99 000 000 000 000 000 000 000 000 000
-99 000 000 000 000 -99 000 000 002 003 003 001 000 000 000 000 000 000 -99 -99 000 -99 -99 000 000 000 000 000 000 000 000
000 000 000 000 000 -99 000 000 001 003 001 000 000 000 000 000 000 000 -99 000 000 -99 000 000 000 -99 000 -99 000 000 -99
000 000 000 -99 000 000 000 000 000 003 000 000 000 000 000 000 000 000 -99 -99 000 -99 -99 000 -99 000 -99 -99 000 -99 -99
000 -99 -99 000 000 000 000 000 000 001 000 000 000 000 000 000 000 -99 -99 000 000 -99 000 000 -99 000 -99 -99 -99 -99 -99
000 -99 -99 -99 000 000 000 000 000 001 000 -99 000 000 000 000 000 000 -99 000 000 -99 000 000 000 -99 -99 -99 -99 -99 -99
-99 000 -99 -99 -99 000 000 000 000 000 -99 000 000 000 000 000 000 -99 -99 000 -99 000 000 000 000 000 -99 -99 -99 -99 -99
000 000 -99 -99 -99 000 -99 000 000 000 -99 -99 000 000 000 000 -99 000 000 000 -99 000 000 000 000 000 -99 -99 000 -99 000
000 -99 -99 -99 000 000 -99 -99 000 000 000 -99 -99 000 000 000 000 000 000 000 000 000 000 000 000 -99 000 000 000 -99 -99
000 -99 -99 -99 000 -99 -99 -99 000 000 000 000 000 000 002 000 000 000 000 -99 000 000 000 000 000 -99 000 000 -99 -99 000
000 -99 -99 -99 -99 -99 -99 -99 000 000 000 000 000 000 001 000 000 000 000 000 000 000 000 000 000 000 000 -99 -99 -99 -99
-99 -99 -99 -99 -99 -99 -99 -99 -99 000 000 000 000 000 000 000 -99 000 000 000 000 000 -99 000 000 000 -99 000 000 000 -99
-99 -99 -99 -99 -99 -99 -99 -99 000 000 000 000 000 000 000 -99 000 000 000 000 -99 000 000 000 000 000 -99 000 000 -99 -99
-99 -99 -99 -99 -99 -99 000 000 000 000 000 000 000 000 000 -99 -99 000 000 -99 -99 000 -99 000 000 -99 -99 000 000 -99 -99
-99 -99 -99 000 000 001 001 001 000 000 -99 000 000 000 -99 -99 -99 -99 000 000 000 000 -99 -99 -99 -99 -99 -99 000 -99 000
-99 -99 -99 000 000 003 006 002 000 000 -99 000 000 -99 -99 -99 -99 -99 -99 000 -99 -99 -99 -99 -99 -99 -99 -99 -99 -99 000
-99 -99 000 000 001 031 004 001 000 000 -99 -99 -99 -99 -99 -99 -99 000 000 000 -99 -99 -99 -99 -99 -99 -99 -99 -99 -99 000
-99 -99 -99 000 004 007 001 000 000 -99 -99 -99 -99 -99 -99 -99 000 000 -99 -99 -99 -99 -99 -99 -99 -99 -99 -99 -99 -99 000
-99 -99 -99 000 000 000 000 000 -99 -99 -99 -99 -99 -99 -99 000 000 000 -99 -99 -99 -99 -99 -99 -99 -99 -99 -99 -99 -99 000
